c instance by G2
c solution = 100101101
c Known solution cost is 408 
p cnf 9 30
w 58 94 37 55 4 7 94 50 9
6 -4 2 0
4 6 7 0
7 5 3 0
5 8 7 0
6 1 -2 0
3 -5 1 0
3 6 -5 0
5 4 -1 0
-3 -4 -6 0
-5 -1 7 0
9 -1 4 0
7 5 -4 0
-3 -1 -5 0
5 1 -7 0
-4 -1 -3 0
-9 -3 -6 0
-3 -4 5 0
-4 5 -3 0
-6 -2 -9 0
8 -5 -6 0
4 -6 3 0
-2 -7 1 0
-8 1 -2 0
-7 1 -3 0
2 1 -7 0
-3 9 -2 0
-4 9 2 0
5 -7 6 0
-1 4 -7 0
-6 3 -8 0
